69
[[-1, 29435, 36305, 0, 46328, 46034, 0, 29133, 0, 8801, 0, 37976, 33862, 0, 0, 0, 0, 0, 26211, 0, 37829, 0, 0, 0, 45280, 0, 0, 0, 0, 45768, 29653, 17069, 0, 31077, 13186, 0, 0, 0, 0, 17937, 0, 15109, 0, 0, 0, 0, 0, 0, 0, 0, 0, 0, 0, 0, 0, 0, 0, 35807, 0, 0, 0, 38354, 26900, 0, 27128, 0, 0, 0, 0],[29435, -1, 45274, 0, 0, 0, 39758, 0, 37111, 0, 0, 0, 0, 0, 29532, 0, 0, 21890, 0, 0, 0, 0, 0, 0, 0, 13252, 0, 18277, 0, 0, 31617, 0, 17377, 20601, 0, 0, 0, 0, 0, 0, 0, 0, 0, 0, 27806, 9933, 25356, 0, 32858, 0, 0, 0, 0, 0, 0, 0, 0, 0, 35861, 36524, 0, 29519, 0, 0, 45449, 0, 0, 0, 0],[36305, 45274, -1, 39772, 0, 0, 0, 28247, 0, 0, 0, 40441, 31421, 16759, 33878, 27676, 42330, 0, 0, 0, 0, 0, 33114, 0, 46172, 0, 0, 0, 0, 0, 0, 0, 31545, 0, 0, 0, 0, 0, 0, 0, 0, 0, 0, 0, 0, 0, 46226, 21019, 0, 0, 0, 0, 41954, 0, 43349, 24300, 42093, 0, 0, 0, 0, 0, 0, 0, 0, 0, 0, 24108, 3839],[0, 0, 39772, -1, 0, 0, 0, 0, 0, 32300, 0, 0, 0, 0, 0, 0, 0, 0, 0, 0, 0, 0, 0, 0, 3565, 0, 45774, 0, 32922, 13753, 0, 20260, 0, 0, 0, 33529, 34996, 0, 19053, 0, 29704, 0, 0, 37985, 43831, 0, 15462, 0, 0, 0, 39391, 0, 0, 25051, 0, 0, 41741, 0, 0, 0, 0, 0, 0, 0, 0, 0, 38692, 0, 0],[46328, 0, 0, 0, -1, 0, 0, 0, 0, 0, 24293, 37256, 39066, 0, 0, 0, 0, 44592, 0, 0, 0, 0, 0, 0, 0, 26503, 0, 0, 0, 0, 0, 0, 0, 0, 0, 0, 0, 0, 0, 0, 0, 0, 0, 0, 0, 0, 0, 0, 0, 0, 0, 0, 0, 0, 0, 0, 41573, 0, 0, 0, 40880, 0, 27592, 0, 42806, 0, 0, 38628, 34024],[46034, 0, 0, 0, 0, -1, 0, 0, 0, 0, 0, 0, 0, 0, 0, 0, 0, 0, 0, 0, 0, 17580, 43372, 18979, 35506, 0, 0, 0, 0, 32870, 40180, 0, 0, 0, 5615, 0, 0, 0, 20140, 0, 0, 0, 0, 34862, 0, 37190, 0, 0, 35319, 0, 0, 0, 0, 0, 35352, 0, 0, 23283, 0, 0, 0, 26564, 16127, 0, 0, 0, 0, 0, 0],[0, 39758, 0, 0, 0, 0, -1, 0, 0, 0, 0, 31964, 0, 0, 0, 0, 0, 0, 0, 0, 0, 34101, 0, 25169, 0, 0, 0, 14999, 0, 0, 0, 40755, 0, 0, 36610, 0, 0, 0, 0, 0, 0, 0, 0, 0, 0, 34601, 0, 0, 24490, 0, 0, 0, 27646, 37508, 0, 0, 22890, 0, 0, 20282, 0, 40122, 21520, 0, 0, 0, 0, 0, 0],[29133, 0, 28247, 0, 0, 0, 0, -1, 42706, 0, 0, 0, 0, 0, 0, 0, 0, 0, 0, 41202, 0, 0, 8795, 0, 0, 43929, 0, 0, 0, 38482, 0, 0, 0, 0, 0, 0, 0, 37691, 0, 32285, 0, 0, 0, 0, 0, 11076, 5013, 0, 0, 24439, 0, 0, 0, 0, 0, 42258, 17088, 0, 0, 0, 0, 26501, 0, 0, 37700, 0, 0, 0, 0],[0, 37111, 0, 0, 0, 0, 0, 42706, -1, 0, 0, 0, 42872, 0, 0, 0, 0, 36118, 0, 0, 0, 0, 0, 0, 37490, 0, 0, 0, 0, 0, 0, 0, 39343, 0, 0, 0, 0, 0, 0, 0, 0, 0, 26640, 0, 0, 34728, 0, 0, 0, 0, 0, 24668, 45877, 0, 0, 0, 0, 0, 0, 26355, 0, 0, 0, 0, 0, 38259, 0, 26016, 0],[8801, 0, 0, 32300, 0, 0, 0, 0, 0, -1, 0, 0, 0, 0, 0, 0, 0, 0, 0, 0, 10438, 0, 0, 42245, 0, 23245, 0, 0, 0, 0, 0, 0, 0, 41070, 0, 0, 0, 4103, 0, 0, 0, 0, 0, 0, 26861, 22071, 0, 0, 0, 0, 0, 0, 30551, 0, 0, 0, 40100, 0, 40052, 15979, 0, 0, 0, 0, 0, 0, 0, 11873, 0],[0, 0, 0, 0, 24293, 0, 0, 0, 0, 0, -1, 0, 44483, 0, 0, 0, 38501, 0, 41640, 0, 0, 13933, 36930, 0, 0, 32117, 0, 0, 45857, 0, 0, 0, 0, 0, 0, 0, 0, 0, 30267, 8453, 0, 0, 13844, 0, 0, 0, 0, 28327, 0, 0, 30490, 0, 0, 0, 24352, 37156, 0, 46176, 0, 0, 0, 31741, 0, 0, 0, 0, 0, 0, 0],[37976, 0, 40441, 0, 37256, 0, 31964, 0, 0, 0, 0, -1, 0, 0, 0, 45773, 0, 0, 0, 0, 4713, 0, 0, 0, 0, 41070, 29845, 0, 0, 0, 41545, 0, 0, 0, 0, 0, 0, 0, 41353, 45065, 0, 0, 21548, 0, 0, 0, 0, 0, 0, 0, 0, 0, 0, 0, 0, 0, 43534, 0, 0, 35892, 0, 0, 0, 0, 0, 27258, 0, 29464, 40132],[33862, 0, 31421, 0, 39066, 0, 0, 0, 42872, 0, 44483, 0, -1, 0, 22628, 0, 0, 0, 36458, 0, 43194, 39355, 24302, 13321, 0, 0, 22361, 40468, 0, 9162, 37080, 0, 5982, 0, 0, 0, 0, 0, 0, 0, 0, 21223, 0, 0, 0, 0, 0, 0, 0, 0, 33683, 0, 27256, 46167, 16478, 0, 0, 0, 0, 0, 0, 18480, 9087, 0, 0, 0, 0, 0, 0],[0, 0, 16759, 0, 0, 0, 0, 0, 0, 0, 0, 0, 0, -1, 0, 0, 30301, 45783, 0, 0, 44475, 0, 0, 0, 0, 44197, 0, 0, 24679, 11363, 24657, 0, 41697, 40453, 0, 0, 0, 0, 33600, 39943, 40593, 0, 0, 0, 19737, 0, 0, 18578, 0, 43851, 38248, 0, 0, 0, 0, 0, 0, 0, 0, 0, 16686, 37048, 0, 0, 10454, 0, 0, 19874, 38791],[0, 29532, 33878, 0, 0, 0, 0, 0, 0, 0, 0, 0, 22628, 0, -1, 0, 0, 0, 0, 0, 2081, 26085, 0, 0, 30268, 0, 0, 0, 0, 0, 40000, 0, 0, 0, 0, 0, 19369, 19854, 0, 0, 39740, 46164, 0, 0, 35483, 37832, 45906, 38943, 0, 30804, 32525, 22241, 30558, 0, 0, 0, 0, 0, 0, 2570, 17289, 0, 0, 0, 24247, 28508, 0, 0, 0],[0, 0, 27676, 0, 0, 0, 0, 0, 0, 0, 0, 45773, 0, 0, 0, -1, 0, 0, 0, 0, 0, 42937, 40127, 0, 0, 32480, 0, 0, 0, 0, 0, 0, 0, 0, 25906, 0, 0, 0, 29734, 0, 0, 0, 0, 0, 0, 36838, 0, 0, 43808, 0, 0, 0, 35584, 38086, 0, 39226, 0, 28056, 0, 39889, 12353, 0, 20721, 0, 0, 0, 0, 0, 0],[0, 0, 42330, 0, 0, 0, 0, 0, 0, 0, 38501, 0, 0, 30301, 0, 0, -1, 0, 0, 0, 10112, 0, 0, 0, 37482, 39556, 20319, 0, 0, 0, 39048, 0, 0, 0, 44787, 0, 0, 0, 0, 19461, 35551, 0, 0, 0, 0, 0, 0, 34746, 0, 0, 40593, 0, 37022, 0, 20332, 0, 0, 24090, 27702, 41304, 29755, 45489, 0, 0, 42186, 31021, 17707, 43670, 0],[0, 21890, 0, 0, 44592, 0, 0, 0, 36118, 0, 0, 0, 0, 45783, 0, 0, 0, -1, 0, 0, 39709, 0, 43542, 0, 33072, 0, 40401, 0, 0, 0, 8350, 0, 0, 0, 0, 0, 0, 0, 0, 0, 27445, 0, 0, 0, 37631, 0, 0, 0, 0, 27623, 0, 8262, 0, 0, 0, 0, 0, 45258, 0, 0, 0, 13668, 0, 0, 0, 0, 0, 0, 0],[26211, 0, 0, 0, 0, 0, 0, 0, 0, 0, 41640, 0, 36458, 0, 0, 0, 0, 0, -1, 0, 0, 9046, 0, 0, 0, 0, 0, 0, 0, 0, 32489, 21391, 43939, 0, 27367, 0, 0, 0, 0, 0, 0, 0, 0, 0, 32898, 0, 0, 34600, 0, 0, 0, 32702, 0, 0, 0, 0, 0, 0, 21309, 0, 0, 0, 19050, 0, 0, 33199, 0, 0, 0],[0, 0, 0, 0, 0, 0, 0, 41202, 0, 0, 0, 0, 0, 0, 0, 0, 0, 0, 0, -1, 0, 44407, 0, 0, 0, 42201, 0, 34320, 34053, 0, 0, 0, 0, 0, 0, 0, 31593, 0, 0, 0, 0, 0, 19717, 0, 0, 0, 0, 0, 0, 0, 0, 0, 35499, 0, 0, 0, 31718, 0, 0, 0, 15410, 0, 31416, 0, 0, 0, 13272, 0, 0],[37829, 0, 0, 0, 0, 0, 0, 0, 0, 10438, 0, 4713, 43194, 44475, 2081, 0, 10112, 39709, 0, 0, -1, 0, 35456, 0, 0, 0, 0, 0, 0, 32074, 21620, 0, 0, 0, 0, 0, 0, 22020, 0, 0, 0, 0, 0, 0, 0, 0, 0, 0, 0, 0, 41400, 0, 0, 0, 3538, 33209, 0, 0, 0, 0, 0, 0, 0, 0, 0, 20935, 33588, 11935, 0],[0, 0, 0, 0, 0, 17580, 34101, 0, 0, 0, 13933, 0, 39355, 0, 26085, 42937, 0, 0, 9046, 44407, 0, -1, 0, 0, 23015, 0, 0, 0, 18392, 0, 40592, 36368, 0, 0, 39200, 0, 35102, 0, 0, 0, 0, 0, 0, 38850, 0, 0, 0, 0, 0, 0, 0, 43745, 32499, 0, 0, 41961, 0, 33073, 0, 0, 42845, 0, 0, 25442, 0, 11279, 0, 0, 0],[0, 0, 33114, 0, 0, 43372, 0, 8795, 0, 0, 36930, 0, 24302, 0, 0, 40127, 0, 43542, 0, 0, 35456, 0, -1, 38376, 0, 0, 0, 28070, 0, 34825, 0, 0, 0, 0, 0, 0, 0, 22329, 45738, 42369, 0, 0, 6788, 0, 44762, 0, 0, 0, 0, 0, 0, 0, 15984, 0, 29546, 0, 36122, 0, 0, 0, 0, 0, 25721, 0, 0, 0, 33525, 0, 37974],[0, 0, 0, 0, 0, 18979, 25169, 0, 0, 42245, 0, 0, 13321, 0, 0, 0, 0, 0, 0, 0, 0, 0, 38376, -1, 0, 0, 31343, 0, 40271, 0, 0, 0, 0, 0, 0, 0, 0, 0, 0, 0, 30517, 35322, 0, 11194, 0, 0, 0, 32355, 0, 0, 0, 0, 29445, 0, 0, 0, 0, 16878, 0, 0, 44217, 0, 0, 0, 33855, 28322, 38235, 0, 21943],[45280, 0, 46172, 3565, 0, 35506, 0, 0, 37490, 0, 0, 0, 0, 0, 30268, 0, 37482, 33072, 0, 0, 0, 23015, 0, 0, -1, 0, 0, 0, 0, 0, 4702, 0, 0, 0, 0, 0, 0, 0, 23507, 39065, 0, 0, 0, 0, 0, 36402, 22664, 0, 0, 0, 0, 0, 0, 0, 0, 0, 0, 0, 0, 0, 0, 0, 36099, 0, 26295, 0, 0, 14713, 34711],[0, 13252, 0, 0, 26503, 0, 0, 43929, 0, 23245, 32117, 41070, 0, 44197, 0, 32480, 39556, 0, 0, 42201, 0, 0, 0, 0, 0, -1, 0, 0, 0, 0, 0, 0, 0, 0, 0, 0, 45268, 0, 0, 0, 0, 0, 39869, 0, 0, 46035, 0, 0, 44739, 0, 36776, 0, 39723, 0, 0, 28932, 0, 0, 0, 0, 0, 0, 38257, 0, 7632, 0, 0, 0, 0],[0, 0, 0, 45774, 0, 0, 0, 0, 0, 0, 0, 29845, 22361, 0, 0, 0, 20319, 40401, 0, 0, 0, 0, 0, 31343, 0, 0, -1, 35603, 0, 0, 0, 14564, 0, 0, 0, 0, 0, 0, 0, 38316, 0, 24746, 0, 41676, 0, 0, 0, 0, 0, 0, 0, 0, 0, 0, 0, 0, 0, 31707, 31180, 0, 0, 45316, 0, 0, 31916, 0, 19566, 0, 0],[0, 18277, 0, 0, 0, 0, 14999, 0, 0, 0, 0, 0, 40468, 0, 0, 0, 0, 0, 0, 34320, 0, 0, 28070, 0, 0, 0, 35603, -1, 0, 0, 17492, 38461, 28308, 45060, 0, 0, 0, 0, 0, 40169, 0, 0, 37292, 0, 0, 0, 28520, 0, 0, 38402, 46339, 35637, 0, 0, 39007, 0, 0, 0, 0, 0, 31491, 0, 0, 35462, 0, 0, 0, 0, 0],[0, 0, 0, 32922, 0, 0, 0, 0, 0, 0, 45857, 0, 0, 24679, 0, 0, 0, 0, 0, 34053, 0, 18392, 0, 40271, 0, 0, 0, 0, -1, 0, 0, 0, 0, 40583, 38449, 0, 0, 0, 33569, 0, 0, 0, 0, 0, 0, 0, 0, 0, 0, 0, 0, 0, 34121, 0, 17650, 0, 0, 0, 40480, 0, 0, 38631, 0, 0, 10213, 0, 21103, 40694, 0],[45768, 0, 0, 13753, 0, 32870, 0, 38482, 0, 0, 0, 0, 9162, 11363, 0, 0, 0, 0, 0, 0, 32074, 0, 34825, 0, 0, 0, 0, 0, 0, -1, 41425, 41493, 0, 0, 0, 37033, 0, 0, 0, 0, 24656, 0, 0, 0, 0, 0, 0, 40101, 0, 0, 42130, 45545, 0, 31354, 33731, 31002, 0, 0, 0, 0, 0, 0, 0, 0, 0, 36141, 24221, 36900, 0],[29653, 31617, 0, 0, 0, 40180, 0, 0, 0, 0, 0, 41545, 37080, 24657, 40000, 0, 39048, 8350, 32489, 0, 21620, 40592, 0, 0, 4702, 0, 0, 17492, 0, 41425, -1, 29399, 0, 0, 0, 0, 0, 0, 0, 0, 0, 22347, 42839, 24316, 0, 35625, 0, 0, 0, 0, 0, 46271, 44635, 0, 0, 0, 0, 0, 0, 33477, 0, 0, 28786, 0, 0, 0, 0, 12924, 0],[17069, 0, 0, 20260, 0, 0, 40755, 0, 0, 0, 0, 0, 0, 0, 0, 0, 0, 0, 21391, 0, 0, 36368, 0, 0, 0, 0, 14564, 38461, 0, 41493, 29399, -1, 0, 0, 0, 0, 0, 0, 29076, 0, 35491, 0, 0, 0, 0, 29477, 0, 0, 0, 23965, 7140, 23837, 0, 0, 0, 0, 0, 0, 0, 0, 0, 0, 0, 0, 0, 4981, 38246, 0, 0],[0, 17377, 31545, 0, 0, 0, 0, 0, 39343, 0, 0, 0, 5982, 41697, 0, 0, 0, 0, 43939, 0, 0, 0, 0, 0, 0, 0, 0, 28308, 0, 0, 0, 0, -1, 0, 0, 0, 0, 26641, 0, 0, 0, 7349, 29447, 0, 0, 0, 43239, 0, 0, 0, 0, 0, 0, 19884, 0, 0, 0, 0, 0, 0, 0, 0, 0, 0, 0, 43784, 0, 0, 0],[31077, 20601, 0, 0, 0, 0, 0, 0, 0, 41070, 0, 0, 0, 40453, 0, 0, 0, 0, 0, 0, 0, 0, 0, 0, 0, 0, 0, 45060, 40583, 0, 0, 0, 0, -1, 0, 0, 0, 0, 0, 36687, 0, 25490, 24989, 0, 0, 0, 42561, 0, 42542, 0, 13213, 0, 28171, 36005, 0, 0, 0, 0, 26467, 0, 0, 0, 0, 0, 32323, 45552, 0, 13164, 0],[13186, 0, 0, 0, 0, 5615, 36610, 0, 0, 0, 0, 0, 0, 0, 0, 25906, 44787, 0, 27367, 0, 0, 39200, 0, 0, 0, 0, 0, 0, 38449, 0, 0, 0, 0, 0, -1, 0, 0, 0, 22968, 0, 0, 41420, 0, 0, 0, 17008, 0, 0, 0, 0, 0, 0, 0, 0, 0, 0, 0, 15224, 35543, 25516, 14165, 0, 0, 0, 39612, 27735, 29092, 32634, 0],[0, 0, 0, 33529, 0, 0, 0, 0, 0, 0, 0, 0, 0, 0, 0, 0, 0, 0, 0, 0, 0, 0, 0, 0, 0, 0, 0, 0, 0, 37033, 0, 0, 0, 0, 0, -1, 0, 0, 0, 0, 43275, 0, 0, 0, 0, 30895, 41988, 0, 0, 32036, 0, 0, 7512, 0, 0, 0, 0, 34488, 0, 0, 25904, 32542, 27982, 37896, 29100, 0, 0, 24868, 0],[0, 0, 0, 34996, 0, 0, 0, 0, 0, 0, 0, 0, 0, 0, 19369, 0, 0, 0, 0, 31593, 0, 35102, 0, 0, 0, 45268, 0, 0, 0, 0, 0, 0, 0, 0, 0, 0, -1, 0, 21794, 0, 44540, 18111, 0, 0, 0, 0, 0, 0, 0, 17278, 0, 0, 0, 0, 41668, 0, 42176, 0, 39878, 0, 0, 0, 0, 28683, 0, 38582, 0, 0, 0],[0, 0, 0, 0, 0, 0, 0, 37691, 0, 4103, 0, 0, 0, 0, 19854, 0, 0, 0, 0, 0, 22020, 0, 22329, 0, 0, 0, 0, 0, 0, 0, 0, 0, 26641, 0, 0, 0, 0, -1, 0, 0, 39304, 0, 0, 28443, 0, 0, 0, 0, 0, 36025, 30987, 0, 29247, 41528, 29332, 0, 0, 0, 42548, 0, 0, 0, 0, 15284, 0, 0, 0, 0, 0],[0, 0, 0, 19053, 0, 20140, 0, 0, 0, 0, 30267, 41353, 0, 33600, 0, 29734, 0, 0, 0, 0, 0, 0, 45738, 0, 23507, 0, 0, 0, 33569, 0, 0, 29076, 0, 0, 22968, 0, 21794, 0, -1, 0, 0, 28745, 0, 0, 14425, 0, 0, 0, 0, 45716, 0, 0, 0, 40459, 0, 0, 0, 0, 0, 0, 0, 0, 19037, 0, 0, 0, 0, 0, 0],[17937, 0, 0, 0, 0, 0, 0, 32285, 0, 0, 8453, 45065, 0, 39943, 0, 0, 19461, 0, 0, 0, 0, 0, 42369, 0, 39065, 0, 38316, 40169, 0, 0, 0, 0, 0, 36687, 0, 0, 0, 0, 0, -1, 35406, 0, 0, 0, 0, 0, 0, 0, 0, 43803, 0, 0, 28730, 0, 0, 0, 0, 0, 0, 0, 30591, 38918, 9899, 0, 0, 28941, 0, 0, 0],[0, 0, 0, 29704, 0, 0, 0, 0, 0, 0, 0, 0, 0, 40593, 39740, 0, 35551, 27445, 0, 0, 0, 0, 0, 30517, 0, 0, 0, 0, 0, 24656, 0, 35491, 0, 0, 0, 43275, 44540, 39304, 0, 35406, -1, 0, 0, 0, 0, 0, 0, 0, 0, 0, 0, 44676, 0, 0, 0, 0, 0, 0, 0, 43619, 0, 0, 0, 0, 44393, 0, 0, 0, 0],[15109, 0, 0, 0, 0, 0, 0, 0, 0, 0, 0, 0, 21223, 0, 46164, 0, 0, 0, 0, 0, 0, 0, 0, 35322, 0, 0, 24746, 0, 0, 0, 22347, 0, 7349, 25490, 41420, 0, 18111, 0, 28745, 0, 0, -1, 0, 29337, 36851, 0, 0, 0, 0, 0, 0, 0, 0, 36278, 16442, 0, 0, 0, 0, 0, 0, 0, 36113, 0, 0, 0, 0, 0, 0],[0, 0, 0, 0, 0, 0, 0, 0, 26640, 0, 13844, 21548, 0, 0, 0, 0, 0, 0, 0, 19717, 0, 0, 6788, 0, 0, 39869, 0, 37292, 0, 0, 42839, 0, 29447, 24989, 0, 0, 0, 0, 0, 0, 0, 0, -1, 19228, 0, 0, 0, 0, 0, 0, 0, 0, 0, 0, 0, 0, 0, 0, 0, 0, 45463, 0, 0, 40665, 46279, 0, 0, 0, 0],[0, 0, 0, 37985, 0, 34862, 0, 0, 0, 0, 0, 0, 0, 0, 0, 0, 0, 0, 0, 0, 0, 38850, 0, 11194, 0, 0, 41676, 0, 0, 0, 24316, 0, 0, 0, 0, 0, 0, 28443, 0, 0, 0, 29337, 19228, -1, 0, 0, 0, 0, 0, 0, 0, 0, 33293, 0, 0, 0, 33337, 20868, 0, 0, 0, 0, 0, 0, 0, 0, 0, 22783, 0],[0, 27806, 0, 43831, 0, 0, 0, 0, 0, 26861, 0, 0, 0, 19737, 35483, 0, 0, 37631, 32898, 0, 0, 0, 44762, 0, 0, 0, 0, 0, 0, 0, 0, 0, 0, 0, 0, 0, 0, 0, 14425, 0, 0, 36851, 0, 0, -1, 0, 46019, 0, 39076, 0, 0, 0, 41660, 19123, 0, 42626, 0, 0, 0, 17540, 0, 0, 0, 0, 29568, 10740, 0, 0, 0],[0, 9933, 0, 0, 0, 37190, 34601, 11076, 34728, 22071, 0, 0, 0, 0, 37832, 36838, 0, 0, 0, 0, 0, 0, 0, 0, 36402, 46035, 0, 0, 0, 0, 35625, 29477, 0, 0, 17008, 30895, 0, 0, 0, 0, 0, 0, 0, 0, 0, -1, 41677, 0, 37452, 32710, 0, 46126, 0, 45709, 0, 0, 0, 31290, 0, 13758, 0, 0, 0, 0, 0, 0, 0, 0, 43323],[0, 25356, 46226, 15462, 0, 0, 0, 5013, 0, 0, 0, 0, 0, 0, 45906, 0, 0, 0, 0, 0, 0, 0, 0, 0, 22664, 0, 0, 28520, 0, 0, 0, 0, 43239, 42561, 0, 41988, 0, 0, 0, 0, 0, 0, 0, 0, 46019, 41677, -1, 0, 42853, 0, 0, 0, 0, 27424, 0, 0, 0, 0, 0, 0, 0, 0, 0, 0, 0, 0, 0, 0, 0],[0, 0, 21019, 0, 0, 0, 0, 0, 0, 0, 28327, 0, 0, 18578, 38943, 0, 34746, 0, 34600, 0, 0, 0, 0, 32355, 0, 0, 0, 0, 0, 40101, 0, 0, 0, 0, 0, 0, 0, 0, 0, 0, 0, 0, 0, 0, 0, 0, 0, -1, 3697, 0, 0, 0, 0, 0, 0, 35858, 26277, 0, 0, 0, 6218, 0, 29977, 36550, 3805, 0, 0, 0, 9413],[0, 32858, 0, 0, 0, 35319, 24490, 0, 0, 0, 0, 0, 0, 0, 0, 43808, 0, 0, 0, 0, 0, 0, 0, 0, 0, 44739, 0, 0, 0, 0, 0, 0, 0, 42542, 0, 0, 0, 0, 0, 0, 0, 0, 0, 0, 39076, 37452, 42853, 3697, -1, 43293, 0, 0, 0, 38057, 0, 0, 0, 0, 0, 14130, 0, 0, 0, 0, 0, 0, 0, 32615, 0],[0, 0, 0, 0, 0, 0, 0, 24439, 0, 0, 0, 0, 0, 43851, 30804, 0, 0, 27623, 0, 0, 0, 0, 0, 0, 0, 0, 0, 38402, 0, 0, 0, 23965, 0, 0, 0, 32036, 17278, 36025, 45716, 43803, 0, 0, 0, 0, 0, 32710, 0, 0, 43293, -1, 0, 0, 0, 38485, 0, 0, 0, 0, 0, 0, 0, 31258, 0, 0, 0, 16783, 40113, 0, 0],[0, 0, 0, 39391, 0, 0, 0, 0, 0, 0, 30490, 0, 33683, 38248, 32525, 0, 40593, 0, 0, 0, 41400, 0, 0, 0, 0, 36776, 0, 46339, 0, 42130, 0, 7140, 0, 13213, 0, 0, 0, 30987, 0, 0, 0, 0, 0, 0, 0, 0, 0, 0, 0, 0, -1, 0, 20910, 0, 0, 25981, 0, 0, 35898, 37088, 0, 0, 0, 0, 19295, 44750, 32250, 0, 0],[0, 0, 0, 0, 0, 0, 0, 0, 24668, 0, 0, 0, 0, 0, 22241, 0, 0, 8262, 32702, 0, 0, 43745, 0, 0, 0, 0, 0, 35637, 0, 45545, 46271, 23837, 0, 0, 0, 0, 0, 0, 0, 0, 44676, 0, 0, 0, 0, 46126, 0, 0, 0, 0, 0, -1, 0, 0, 0, 0, 0, 0, 0, 34753, 0, 0, 0, 0, 0, 0, 0, 0, 8444],[0, 0, 41954, 0, 0, 0, 27646, 0, 45877, 30551, 0, 0, 27256, 0, 30558, 35584, 37022, 0, 0, 35499, 0, 32499, 15984, 29445, 0, 39723, 0, 0, 34121, 0, 44635, 0, 0, 28171, 0, 7512, 0, 29247, 0, 28730, 0, 0, 0, 33293, 41660, 0, 0, 0, 0, 0, 20910, 0, -1, 0, 40777, 0, 0, 0, 0, 0, 0, 45564, 34611, 0, 0, 0, 0, 0, 0],[0, 0, 0, 25051, 0, 0, 37508, 0, 0, 0, 0, 0, 46167, 0, 0, 38086, 0, 0, 0, 0, 0, 0, 0, 0, 0, 0, 0, 0, 0, 31354, 0, 0, 19884, 36005, 0, 0, 0, 41528, 40459, 0, 0, 36278, 0, 0, 19123, 45709, 27424, 0, 38057, 38485, 0, 0, 0, -1, 30831, 0, 38581, 0, 0, 0, 46065, 0, 27920, 0, 25815, 36009, 0, 36009, 0],[0, 0, 43349, 0, 0, 35352, 0, 0, 0, 0, 24352, 0, 16478, 0, 0, 0, 20332, 0, 0, 0, 3538, 0, 29546, 0, 0, 0, 0, 39007, 17650, 33731, 0, 0, 0, 0, 0, 0, 41668, 29332, 0, 0, 0, 16442, 0, 0, 0, 0, 0, 0, 0, 0, 0, 0, 40777, 30831, -1, 0, 0, 0, 0, 0, 0, 0, 0, 35523, 0, 0, 0, 0, 0],[0, 0, 24300, 0, 0, 0, 0, 42258, 0, 0, 37156, 0, 0, 0, 0, 39226, 0, 0, 0, 0, 33209, 41961, 0, 0, 0, 28932, 0, 0, 0, 31002, 0, 0, 0, 0, 0, 0, 0, 0, 0, 0, 0, 0, 0, 0, 42626, 0, 0, 35858, 0, 0, 25981, 0, 0, 0, 0, -1, 0, 12944, 0, 0, 0, 0, 0, 0, 0, 0, 0, 14847, 0],[0, 0, 42093, 41741, 41573, 0, 22890, 17088, 0, 40100, 0, 43534, 0, 0, 0, 0, 0, 0, 0, 31718, 0, 0, 36122, 0, 0, 0, 0, 0, 0, 0, 0, 0, 0, 0, 0, 0, 42176, 0, 0, 0, 0, 0, 0, 33337, 0, 0, 0, 26277, 0, 0, 0, 0, 0, 38581, 0, 0, -1, 45604, 0, 28473, 0, 0, 0, 0, 0, 0, 0, 0, 0],[35807, 0, 0, 0, 0, 23283, 0, 0, 0, 0, 46176, 0, 0, 0, 0, 28056, 24090, 45258, 0, 0, 0, 33073, 0, 16878, 0, 0, 31707, 0, 0, 0, 0, 0, 0, 0, 15224, 34488, 0, 0, 0, 0, 0, 0, 0, 20868, 0, 31290, 0, 0, 0, 0, 0, 0, 0, 0, 0, 12944, 45604, -1, 0, 0, 0, 25602, 36701, 30743, 0, 0, 0, 0, 0],[0, 35861, 0, 0, 0, 0, 0, 0, 0, 40052, 0, 0, 0, 0, 0, 0, 27702, 0, 21309, 0, 0, 0, 0, 0, 0, 0, 31180, 0, 40480, 0, 0, 0, 0, 26467, 35543, 0, 39878, 42548, 0, 0, 0, 0, 0, 0, 0, 0, 0, 0, 0, 0, 35898, 0, 0, 0, 0, 0, 0, 0, -1, 42269, 36640, 0, 0, 0, 0, 0, 35431, 36393, 0],[0, 36524, 0, 0, 0, 0, 20282, 0, 26355, 15979, 0, 35892, 0, 0, 2570, 39889, 41304, 0, 0, 0, 0, 0, 0, 0, 0, 0, 0, 0, 0, 0, 33477, 0, 0, 0, 25516, 0, 0, 0, 0, 0, 43619, 0, 0, 0, 17540, 13758, 0, 0, 14130, 0, 37088, 34753, 0, 0, 0, 0, 28473, 0, 42269, -1, 0, 0, 0, 0, 0, 0, 0, 0, 0],[0, 0, 0, 0, 40880, 0, 0, 0, 0, 0, 0, 0, 0, 16686, 17289, 12353, 29755, 0, 0, 15410, 0, 42845, 0, 44217, 0, 0, 0, 31491, 0, 0, 0, 0, 0, 0, 14165, 25904, 0, 0, 0, 30591, 0, 0, 45463, 0, 0, 0, 0, 6218, 0, 0, 0, 0, 0, 46065, 0, 0, 0, 0, 36640, 0, -1, 0, 31834, 41467, 9776, 0, 0, 0, 0],[38354, 29519, 0, 0, 0, 26564, 40122, 26501, 0, 0, 31741, 0, 18480, 37048, 0, 0, 45489, 13668, 0, 0, 0, 0, 0, 0, 0, 0, 45316, 0, 38631, 0, 0, 0, 0, 0, 0, 32542, 0, 0, 0, 38918, 0, 0, 0, 0, 0, 0, 0, 0, 0, 31258, 0, 0, 45564, 0, 0, 0, 0, 25602, 0, 0, 0, -1, 0, 40754, 0, 0, 0, 0, 0],[26900, 0, 0, 0, 27592, 16127, 21520, 0, 0, 0, 0, 0, 9087, 0, 0, 20721, 0, 0, 19050, 31416, 0, 0, 25721, 0, 36099, 38257, 0, 0, 0, 0, 28786, 0, 0, 0, 0, 27982, 0, 0, 19037, 9899, 0, 36113, 0, 0, 0, 0, 0, 29977, 0, 0, 0, 0, 34611, 27920, 0, 0, 0, 36701, 0, 0, 31834, 0, -1, 0, 38409, 0, 35852, 0, 0],[0, 0, 0, 0, 0, 0, 0, 0, 0, 0, 0, 0, 0, 0, 0, 0, 0, 0, 0, 0, 0, 25442, 0, 0, 0, 0, 0, 35462, 0, 0, 0, 0, 0, 0, 0, 37896, 28683, 15284, 0, 0, 0, 0, 40665, 0, 0, 0, 0, 36550, 0, 0, 0, 0, 0, 0, 35523, 0, 0, 30743, 0, 0, 41467, 40754, 0, -1, 0, 0, 0, 0, 0],[27128, 45449, 0, 0, 42806, 0, 0, 37700, 0, 0, 0, 0, 0, 10454, 24247, 0, 42186, 0, 0, 0, 0, 0, 0, 33855, 26295, 7632, 31916, 0, 10213, 0, 0, 0, 0, 32323, 39612, 29100, 0, 0, 0, 0, 44393, 0, 46279, 0, 29568, 0, 0, 3805, 0, 0, 19295, 0, 0, 25815, 0, 0, 0, 0, 0, 0, 9776, 0, 38409, 0, -1, 27421, 0, 0, 21885],[0, 0, 0, 0, 0, 0, 0, 0, 38259, 0, 0, 27258, 0, 0, 28508, 0, 31021, 0, 33199, 0, 20935, 11279, 0, 28322, 0, 0, 0, 0, 0, 36141, 0, 4981, 43784, 45552, 27735, 0, 38582, 0, 0, 28941, 0, 0, 0, 0, 10740, 0, 0, 0, 0, 16783, 44750, 0, 0, 36009, 0, 0, 0, 0, 0, 0, 0, 0, 0, 0, 27421, -1, 0, 0, 0],[0, 0, 0, 38692, 0, 0, 0, 0, 0, 0, 0, 0, 0, 0, 0, 0, 17707, 0, 0, 13272, 33588, 0, 33525, 38235, 0, 0, 19566, 0, 21103, 24221, 0, 38246, 0, 0, 29092, 0, 0, 0, 0, 0, 0, 0, 0, 0, 0, 0, 0, 0, 0, 40113, 32250, 0, 0, 0, 0, 0, 0, 0, 35431, 0, 0, 0, 35852, 0, 0, 0, -1, 0, 33768],[0, 0, 24108, 0, 38628, 0, 0, 0, 26016, 11873, 0, 29464, 0, 19874, 0, 0, 43670, 0, 0, 0, 11935, 0, 0, 0, 14713, 0, 0, 0, 40694, 36900, 12924, 0, 0, 13164, 32634, 24868, 0, 0, 0, 0, 0, 0, 0, 22783, 0, 0, 0, 0, 32615, 0, 0, 0, 0, 36009, 0, 14847, 0, 0, 36393, 0, 0, 0, 0, 0, 0, 0, 0, -1, 0],[0, 0, 3839, 0, 34024, 0, 0, 0, 0, 0, 0, 40132, 0, 38791, 0, 0, 0, 0, 0, 0, 0, 0, 37974, 21943, 34711, 0, 0, 0, 0, 0, 0, 0, 0, 0, 0, 0, 0, 0, 0, 0, 0, 0, 0, 0, 0, 43323, 0, 9413, 0, 0, 0, 8444, 0, 0, 0, 0, 0, 0, 0, 0, 0, 0, 0, 0, 21885, 0, 33768, 0, -1]]